Differential/diff_ivlbc_1.lp
Minimize
2 p0_0_0 + 4 p1_0_0 + 2 p0_0_1 + 4 p1_0_1 + 2 p0_0_2 + 4 p1_0_2 + 2 p0_0_3 + 4 p1_0_3 + 2 p0_0_4 + 4 p1_0_4 + 2 p0_0_5 + 4 p1_0_5 + 2 p0_0_6 + 4 p1_0_6 + 2 p0_0_7 + 4 p1_0_7 + 2 p0_0_8 + 4 p1_0_8 + 2 p0_0_9 + 4 p1_0_9 + 2 p0_0_10 + 4 p1_0_10 + 2 p0_0_11 + 4 p1_0_11 + 2 p0_0_12 + 4 p1_0_12 + 2 p0_0_13 + 4 p1_0_13 + 2 p0_0_14 + 4 p1_0_14 + 2 p0_0_15 + 4 p1_0_15
Subject to
x0_0 + x0_1 + x0_2 + x0_3 + x0_4 + x0_5 + x0_6 + x0_7 + x0_8 + x0_9 + x0_10 + x0_11 + x0_12 + x0_13 + x0_14 + x0_15 + x0_16 + x0_17 + x0_18 + x0_19 + x0_20 + x0_21 + x0_22 + x0_23 + x0_24 + x0_25 + x0_26 + x0_27 + x0_28 + x0_29 + x0_30 + x0_31 + x0_32 + x0_33 + x0_34 + x0_35 + x0_36 + x0_37 + x0_38 + x0_39 + x0_40 + x0_41 + x0_42 + x0_43 + x0_44 + x0_45 + x0_46 + x0_47 + x0_48 + x0_49 + x0_50 + x0_51 + x0_52 + x0_53 + x0_54 + x0_55 + x0_56 + x0_57 + x0_58 + x0_59 + x0_60 + x0_61 + x0_62 + x0_63 >= 1 
x0_0 + x0_1 + x0_2 + x0_3 - A0_0 >= 0 
A0_0 - x0_0 >= 0 
A0_0 - x0_1 >= 0 
A0_0 - x0_2 >= 0 
A0_0 - x0_3 >= 0 
+ 4 x0_0 + 4 x0_1 + 4 x0_2 + 4 x0_3 - y0_0 - y0_1 - y0_2 - y0_3 >= 0 
+ 4 y0_0 + 4 y0_1 + 4 y0_2 + 4 y0_3 - x0_0 - x0_1 - x0_2 - x0_3 >= 0 
 -1 p0_0_0 -1 p1_0_0 >= -1 
 -1 x0_0 -1 x0_1 -2 x0_2 -1 x0_3 -1 y0_0 -1 y0_1 + 1 y0_3 + 4 p0_0_0 + 6 p1_0_0 >= 0 
 + 1 x0_0 + 1 y0_0 -1 p1_0_0 >= 0 
 -3 x0_0 + 2 y0_0 + 1 y0_1 -1 y0_2 -1 y0_3 + 2 p0_0_0 + 4 p1_0_0 >= 0 
 -1 x0_0 + 2 x0_2 -1 x0_3 + 1 y0_0 + 2 y0_1 + 1 p0_0_0 >= 0 
 + 1 x0_0 + 1 x0_2 + 1 y0_0 + 1 y0_2 -1 p0_0_0 -2 p1_0_0 >= 0 
 + 1 x0_2 + 1 y0_2 -1 p1_0_0 >= 0 
 + 2 x0_2 + 1 x0_3 -1 y0_0 -1 y0_1 -3 y0_2 + 2 p0_0_0 + 4 p1_0_0 >= 0 
 -1 x0_0 + 1 x0_1 -1 x0_2 -1 x0_3 -1 y0_0 + 1 y0_1 -1 y0_2 + 1 y0_3 + 2 p0_0_0 + 4 p1_0_0 >= 0 
 + 2 x0_0 -1 x0_1 + 1 x0_2 + 2 x0_3 -1 y0_2 + 1 p0_0_0 >= 0 
 -1 x0_0 + 1 x0_1 -1 x0_2 + 2 x0_3 -2 y0_0 + 2 y0_1 -1 y0_2 -1 y0_3 + 2 p0_0_0 + 5 p1_0_0 >= 0 
 + 2 x0_0 + 1 x0_1 -1 x0_2 -1 x0_3 -3 y0_0 + 2 p0_0_0 + 4 p1_0_0 >= 0 
 -1 x0_2 + 2 y0_0 -1 y0_1 + 1 y0_2 + 2 y0_3 + 1 p0_0_0 >= 0 
 -1 x0_0 + 1 x0_1 + 1 x0_3 -1 y0_0 -1 y0_1 -2 y0_2 + 1 y0_3 + 2 p0_0_0 + 4 p1_0_0 >= 0 
 + 1 x0_0 + 2 x0_1 -1 y0_0 + 2 y0_2 -1 y0_3 + 1 p0_0_0 >= 0 
 -1 x0_0 -1 x0_1 -1 x0_2 + 1 x0_3 -1 y0_0 + 2 y0_1 -2 y0_2 + 2 y0_3 + 2 p0_0_0 + 5 p1_0_0 >= 0 
 -1 x0_0 -1 x0_1 -3 x0_2 + 2 y0_2 + 1 y0_3 + 2 p0_0_0 + 4 p1_0_0 >= 0 
 -1 x0_0 -1 x0_1 -1 x0_2 -1 x0_3 -1 y0_0 + 1 y0_1 -1 y0_2 -1 y0_3 + 4 p0_0_0 + 6 p1_0_0 >= 0 
 -2 x0_0 + 1 x0_1 -1 x0_2 -2 x0_3 -1 y0_0 -2 y0_1 -1 y0_2 -1 y0_3 + 6 p0_0_0 + 9 p1_0_0 >= 0 
 -1 x0_0 -1 x0_1 -2 x0_2 + 1 x0_3 -1 y0_0 -2 y0_1 -1 y0_2 -2 y0_3 + 6 p0_0_0 + 9 p1_0_0 >= 0 
x0_4 + x0_5 + x0_6 + x0_7 - A0_1 >= 0 
A0_1 - x0_4 >= 0 
A0_1 - x0_5 >= 0 
A0_1 - x0_6 >= 0 
A0_1 - x0_7 >= 0 
+ 4 x0_4 + 4 x0_5 + 4 x0_6 + 4 x0_7 - y0_4 - y0_5 - y0_6 - y0_7 >= 0 
+ 4 y0_4 + 4 y0_5 + 4 y0_6 + 4 y0_7 - x0_4 - x0_5 - x0_6 - x0_7 >= 0 
 -1 p0_0_1 -1 p1_0_1 >= -1 
 -1 x0_4 -1 x0_5 -2 x0_6 -1 x0_7 -1 y0_4 -1 y0_5 + 1 y0_7 + 4 p0_0_1 + 6 p1_0_1 >= 0 
 + 1 x0_4 + 1 y0_4 -1 p1_0_1 >= 0 
 -3 x0_4 + 2 y0_4 + 1 y0_5 -1 y0_6 -1 y0_7 + 2 p0_0_1 + 4 p1_0_1 >= 0 
 -1 x0_4 + 2 x0_6 -1 x0_7 + 1 y0_4 + 2 y0_5 + 1 p0_0_1 >= 0 
 + 1 x0_4 + 1 x0_6 + 1 y0_4 + 1 y0_6 -1 p0_0_1 -2 p1_0_1 >= 0 
 + 1 x0_6 + 1 y0_6 -1 p1_0_1 >= 0 
 + 2 x0_6 + 1 x0_7 -1 y0_4 -1 y0_5 -3 y0_6 + 2 p0_0_1 + 4 p1_0_1 >= 0 
 -1 x0_4 + 1 x0_5 -1 x0_6 -1 x0_7 -1 y0_4 + 1 y0_5 -1 y0_6 + 1 y0_7 + 2 p0_0_1 + 4 p1_0_1 >= 0 
 + 2 x0_4 -1 x0_5 + 1 x0_6 + 2 x0_7 -1 y0_6 + 1 p0_0_1 >= 0 
 -1 x0_4 + 1 x0_5 -1 x0_6 + 2 x0_7 -2 y0_4 + 2 y0_5 -1 y0_6 -1 y0_7 + 2 p0_0_1 + 5 p1_0_1 >= 0 
 + 2 x0_4 + 1 x0_5 -1 x0_6 -1 x0_7 -3 y0_4 + 2 p0_0_1 + 4 p1_0_1 >= 0 
 -1 x0_6 + 2 y0_4 -1 y0_5 + 1 y0_6 + 2 y0_7 + 1 p0_0_1 >= 0 
 -1 x0_4 + 1 x0_5 + 1 x0_7 -1 y0_4 -1 y0_5 -2 y0_6 + 1 y0_7 + 2 p0_0_1 + 4 p1_0_1 >= 0 
 + 1 x0_4 + 2 x0_5 -1 y0_4 + 2 y0_6 -1 y0_7 + 1 p0_0_1 >= 0 
 -1 x0_4 -1 x0_5 -1 x0_6 + 1 x0_7 -1 y0_4 + 2 y0_5 -2 y0_6 + 2 y0_7 + 2 p0_0_1 + 5 p1_0_1 >= 0 
 -1 x0_4 -1 x0_5 -3 x0_6 + 2 y0_6 + 1 y0_7 + 2 p0_0_1 + 4 p1_0_1 >= 0 
 -1 x0_4 -1 x0_5 -1 x0_6 -1 x0_7 -1 y0_4 + 1 y0_5 -1 y0_6 -1 y0_7 + 4 p0_0_1 + 6 p1_0_1 >= 0 
 -2 x0_4 + 1 x0_5 -1 x0_6 -2 x0_7 -1 y0_4 -2 y0_5 -1 y0_6 -1 y0_7 + 6 p0_0_1 + 9 p1_0_1 >= 0 
 -1 x0_4 -1 x0_5 -2 x0_6 + 1 x0_7 -1 y0_4 -2 y0_5 -1 y0_6 -2 y0_7 + 6 p0_0_1 + 9 p1_0_1 >= 0 
x0_8 + x0_9 + x0_10 + x0_11 - A0_2 >= 0 
A0_2 - x0_8 >= 0 
A0_2 - x0_9 >= 0 
A0_2 - x0_10 >= 0 
A0_2 - x0_11 >= 0 
+ 4 x0_8 + 4 x0_9 + 4 x0_10 + 4 x0_11 - y0_8 - y0_9 - y0_10 - y0_11 >= 0 
+ 4 y0_8 + 4 y0_9 + 4 y0_10 + 4 y0_11 - x0_8 - x0_9 - x0_10 - x0_11 >= 0 
 -1 p0_0_2 -1 p1_0_2 >= -1 
 -1 x0_8 -1 x0_9 -2 x0_10 -1 x0_11 -1 y0_8 -1 y0_9 + 1 y0_11 + 4 p0_0_2 + 6 p1_0_2 >= 0 
 + 1 x0_8 + 1 y0_8 -1 p1_0_2 >= 0 
 -3 x0_8 + 2 y0_8 + 1 y0_9 -1 y0_10 -1 y0_11 + 2 p0_0_2 + 4 p1_0_2 >= 0 
 -1 x0_8 + 2 x0_10 -1 x0_11 + 1 y0_8 + 2 y0_9 + 1 p0_0_2 >= 0 
 + 1 x0_8 + 1 x0_10 + 1 y0_8 + 1 y0_10 -1 p0_0_2 -2 p1_0_2 >= 0 
 + 1 x0_10 + 1 y0_10 -1 p1_0_2 >= 0 
 + 2 x0_10 + 1 x0_11 -1 y0_8 -1 y0_9 -3 y0_10 + 2 p0_0_2 + 4 p1_0_2 >= 0 
 -1 x0_8 + 1 x0_9 -1 x0_10 -1 x0_11 -1 y0_8 + 1 y0_9 -1 y0_10 + 1 y0_11 + 2 p0_0_2 + 4 p1_0_2 >= 0 
 + 2 x0_8 -1 x0_9 + 1 x0_10 + 2 x0_11 -1 y0_10 + 1 p0_0_2 >= 0 
 -1 x0_8 + 1 x0_9 -1 x0_10 + 2 x0_11 -2 y0_8 + 2 y0_9 -1 y0_10 -1 y0_11 + 2 p0_0_2 + 5 p1_0_2 >= 0 
 + 2 x0_8 + 1 x0_9 -1 x0_10 -1 x0_11 -3 y0_8 + 2 p0_0_2 + 4 p1_0_2 >= 0 
 -1 x0_10 + 2 y0_8 -1 y0_9 + 1 y0_10 + 2 y0_11 + 1 p0_0_2 >= 0 
 -1 x0_8 + 1 x0_9 + 1 x0_11 -1 y0_8 -1 y0_9 -2 y0_10 + 1 y0_11 + 2 p0_0_2 + 4 p1_0_2 >= 0 
 + 1 x0_8 + 2 x0_9 -1 y0_8 + 2 y0_10 -1 y0_11 + 1 p0_0_2 >= 0 
 -1 x0_8 -1 x0_9 -1 x0_10 + 1 x0_11 -1 y0_8 + 2 y0_9 -2 y0_10 + 2 y0_11 + 2 p0_0_2 + 5 p1_0_2 >= 0 
 -1 x0_8 -1 x0_9 -3 x0_10 + 2 y0_10 + 1 y0_11 + 2 p0_0_2 + 4 p1_0_2 >= 0 
 -1 x0_8 -1 x0_9 -1 x0_10 -1 x0_11 -1 y0_8 + 1 y0_9 -1 y0_10 -1 y0_11 + 4 p0_0_2 + 6 p1_0_2 >= 0 
 -2 x0_8 + 1 x0_9 -1 x0_10 -2 x0_11 -1 y0_8 -2 y0_9 -1 y0_10 -1 y0_11 + 6 p0_0_2 + 9 p1_0_2 >= 0 
 -1 x0_8 -1 x0_9 -2 x0_10 + 1 x0_11 -1 y0_8 -2 y0_9 -1 y0_10 -2 y0_11 + 6 p0_0_2 + 9 p1_0_2 >= 0 
x0_12 + x0_13 + x0_14 + x0_15 - A0_3 >= 0 
A0_3 - x0_12 >= 0 
A0_3 - x0_13 >= 0 
A0_3 - x0_14 >= 0 
A0_3 - x0_15 >= 0 
+ 4 x0_12 + 4 x0_13 + 4 x0_14 + 4 x0_15 - y0_12 - y0_13 - y0_14 - y0_15 >= 0 
+ 4 y0_12 + 4 y0_13 + 4 y0_14 + 4 y0_15 - x0_12 - x0_13 - x0_14 - x0_15 >= 0 
 -1 p0_0_3 -1 p1_0_3 >= -1 
 -1 x0_12 -1 x0_13 -2 x0_14 -1 x0_15 -1 y0_12 -1 y0_13 + 1 y0_15 + 4 p0_0_3 + 6 p1_0_3 >= 0 
 + 1 x0_12 + 1 y0_12 -1 p1_0_3 >= 0 
 -3 x0_12 + 2 y0_12 + 1 y0_13 -1 y0_14 -1 y0_15 + 2 p0_0_3 + 4 p1_0_3 >= 0 
 -1 x0_12 + 2 x0_14 -1 x0_15 + 1 y0_12 + 2 y0_13 + 1 p0_0_3 >= 0 
 + 1 x0_12 + 1 x0_14 + 1 y0_12 + 1 y0_14 -1 p0_0_3 -2 p1_0_3 >= 0 
 + 1 x0_14 + 1 y0_14 -1 p1_0_3 >= 0 
 + 2 x0_14 + 1 x0_15 -1 y0_12 -1 y0_13 -3 y0_14 + 2 p0_0_3 + 4 p1_0_3 >= 0 
 -1 x0_12 + 1 x0_13 -1 x0_14 -1 x0_15 -1 y0_12 + 1 y0_13 -1 y0_14 + 1 y0_15 + 2 p0_0_3 + 4 p1_0_3 >= 0 
 + 2 x0_12 -1 x0_13 + 1 x0_14 + 2 x0_15 -1 y0_14 + 1 p0_0_3 >= 0 
 -1 x0_12 + 1 x0_13 -1 x0_14 + 2 x0_15 -2 y0_12 + 2 y0_13 -1 y0_14 -1 y0_15 + 2 p0_0_3 + 5 p1_0_3 >= 0 
 + 2 x0_12 + 1 x0_13 -1 x0_14 -1 x0_15 -3 y0_12 + 2 p0_0_3 + 4 p1_0_3 >= 0 
 -1 x0_14 + 2 y0_12 -1 y0_13 + 1 y0_14 + 2 y0_15 + 1 p0_0_3 >= 0 
 -1 x0_12 + 1 x0_13 + 1 x0_15 -1 y0_12 -1 y0_13 -2 y0_14 + 1 y0_15 + 2 p0_0_3 + 4 p1_0_3 >= 0 
 + 1 x0_12 + 2 x0_13 -1 y0_12 + 2 y0_14 -1 y0_15 + 1 p0_0_3 >= 0 
 -1 x0_12 -1 x0_13 -1 x0_14 + 1 x0_15 -1 y0_12 + 2 y0_13 -2 y0_14 + 2 y0_15 + 2 p0_0_3 + 5 p1_0_3 >= 0 
 -1 x0_12 -1 x0_13 -3 x0_14 + 2 y0_14 + 1 y0_15 + 2 p0_0_3 + 4 p1_0_3 >= 0 
 -1 x0_12 -1 x0_13 -1 x0_14 -1 x0_15 -1 y0_12 + 1 y0_13 -1 y0_14 -1 y0_15 + 4 p0_0_3 + 6 p1_0_3 >= 0 
 -2 x0_12 + 1 x0_13 -1 x0_14 -2 x0_15 -1 y0_12 -2 y0_13 -1 y0_14 -1 y0_15 + 6 p0_0_3 + 9 p1_0_3 >= 0 
 -1 x0_12 -1 x0_13 -2 x0_14 + 1 x0_15 -1 y0_12 -2 y0_13 -1 y0_14 -2 y0_15 + 6 p0_0_3 + 9 p1_0_3 >= 0 
x0_16 + x0_17 + x0_18 + x0_19 - A0_4 >= 0 
A0_4 - x0_16 >= 0 
A0_4 - x0_17 >= 0 
A0_4 - x0_18 >= 0 
A0_4 - x0_19 >= 0 
+ 4 x0_16 + 4 x0_17 + 4 x0_18 + 4 x0_19 - y0_16 - y0_17 - y0_18 - y0_19 >= 0 
+ 4 y0_16 + 4 y0_17 + 4 y0_18 + 4 y0_19 - x0_16 - x0_17 - x0_18 - x0_19 >= 0 
 -1 p0_0_4 -1 p1_0_4 >= -1 
 -1 x0_16 -1 x0_17 -2 x0_18 -1 x0_19 -1 y0_16 -1 y0_17 + 1 y0_19 + 4 p0_0_4 + 6 p1_0_4 >= 0 
 + 1 x0_16 + 1 y0_16 -1 p1_0_4 >= 0 
 -3 x0_16 + 2 y0_16 + 1 y0_17 -1 y0_18 -1 y0_19 + 2 p0_0_4 + 4 p1_0_4 >= 0 
 -1 x0_16 + 2 x0_18 -1 x0_19 + 1 y0_16 + 2 y0_17 + 1 p0_0_4 >= 0 
 + 1 x0_16 + 1 x0_18 + 1 y0_16 + 1 y0_18 -1 p0_0_4 -2 p1_0_4 >= 0 
 + 1 x0_18 + 1 y0_18 -1 p1_0_4 >= 0 
 + 2 x0_18 + 1 x0_19 -1 y0_16 -1 y0_17 -3 y0_18 + 2 p0_0_4 + 4 p1_0_4 >= 0 
 -1 x0_16 + 1 x0_17 -1 x0_18 -1 x0_19 -1 y0_16 + 1 y0_17 -1 y0_18 + 1 y0_19 + 2 p0_0_4 + 4 p1_0_4 >= 0 
 + 2 x0_16 -1 x0_17 + 1 x0_18 + 2 x0_19 -1 y0_18 + 1 p0_0_4 >= 0 
 -1 x0_16 + 1 x0_17 -1 x0_18 + 2 x0_19 -2 y0_16 + 2 y0_17 -1 y0_18 -1 y0_19 + 2 p0_0_4 + 5 p1_0_4 >= 0 
 + 2 x0_16 + 1 x0_17 -1 x0_18 -1 x0_19 -3 y0_16 + 2 p0_0_4 + 4 p1_0_4 >= 0 
 -1 x0_18 + 2 y0_16 -1 y0_17 + 1 y0_18 + 2 y0_19 + 1 p0_0_4 >= 0 
 -1 x0_16 + 1 x0_17 + 1 x0_19 -1 y0_16 -1 y0_17 -2 y0_18 + 1 y0_19 + 2 p0_0_4 + 4 p1_0_4 >= 0 
 + 1 x0_16 + 2 x0_17 -1 y0_16 + 2 y0_18 -1 y0_19 + 1 p0_0_4 >= 0 
 -1 x0_16 -1 x0_17 -1 x0_18 + 1 x0_19 -1 y0_16 + 2 y0_17 -2 y0_18 + 2 y0_19 + 2 p0_0_4 + 5 p1_0_4 >= 0 
 -1 x0_16 -1 x0_17 -3 x0_18 + 2 y0_18 + 1 y0_19 + 2 p0_0_4 + 4 p1_0_4 >= 0 
 -1 x0_16 -1 x0_17 -1 x0_18 -1 x0_19 -1 y0_16 + 1 y0_17 -1 y0_18 -1 y0_19 + 4 p0_0_4 + 6 p1_0_4 >= 0 
 -2 x0_16 + 1 x0_17 -1 x0_18 -2 x0_19 -1 y0_16 -2 y0_17 -1 y0_18 -1 y0_19 + 6 p0_0_4 + 9 p1_0_4 >= 0 
 -1 x0_16 -1 x0_17 -2 x0_18 + 1 x0_19 -1 y0_16 -2 y0_17 -1 y0_18 -2 y0_19 + 6 p0_0_4 + 9 p1_0_4 >= 0 
x0_20 + x0_21 + x0_22 + x0_23 - A0_5 >= 0 
A0_5 - x0_20 >= 0 
A0_5 - x0_21 >= 0 
A0_5 - x0_22 >= 0 
A0_5 - x0_23 >= 0 
+ 4 x0_20 + 4 x0_21 + 4 x0_22 + 4 x0_23 - y0_20 - y0_21 - y0_22 - y0_23 >= 0 
+ 4 y0_20 + 4 y0_21 + 4 y0_22 + 4 y0_23 - x0_20 - x0_21 - x0_22 - x0_23 >= 0 
 -1 p0_0_5 -1 p1_0_5 >= -1 
 -1 x0_20 -1 x0_21 -2 x0_22 -1 x0_23 -1 y0_20 -1 y0_21 + 1 y0_23 + 4 p0_0_5 + 6 p1_0_5 >= 0 
 + 1 x0_20 + 1 y0_20 -1 p1_0_5 >= 0 
 -3 x0_20 + 2 y0_20 + 1 y0_21 -1 y0_22 -1 y0_23 + 2 p0_0_5 + 4 p1_0_5 >= 0 
 -1 x0_20 + 2 x0_22 -1 x0_23 + 1 y0_20 + 2 y0_21 + 1 p0_0_5 >= 0 
 + 1 x0_20 + 1 x0_22 + 1 y0_20 + 1 y0_22 -1 p0_0_5 -2 p1_0_5 >= 0 
 + 1 x0_22 + 1 y0_22 -1 p1_0_5 >= 0 
 + 2 x0_22 + 1 x0_23 -1 y0_20 -1 y0_21 -3 y0_22 + 2 p0_0_5 + 4 p1_0_5 >= 0 
 -1 x0_20 + 1 x0_21 -1 x0_22 -1 x0_23 -1 y0_20 + 1 y0_21 -1 y0_22 + 1 y0_23 + 2 p0_0_5 + 4 p1_0_5 >= 0 
 + 2 x0_20 -1 x0_21 + 1 x0_22 + 2 x0_23 -1 y0_22 + 1 p0_0_5 >= 0 
 -1 x0_20 + 1 x0_21 -1 x0_22 + 2 x0_23 -2 y0_20 + 2 y0_21 -1 y0_22 -1 y0_23 + 2 p0_0_5 + 5 p1_0_5 >= 0 
 + 2 x0_20 + 1 x0_21 -1 x0_22 -1 x0_23 -3 y0_20 + 2 p0_0_5 + 4 p1_0_5 >= 0 
 -1 x0_22 + 2 y0_20 -1 y0_21 + 1 y0_22 + 2 y0_23 + 1 p0_0_5 >= 0 
 -1 x0_20 + 1 x0_21 + 1 x0_23 -1 y0_20 -1 y0_21 -2 y0_22 + 1 y0_23 + 2 p0_0_5 + 4 p1_0_5 >= 0 
 + 1 x0_20 + 2 x0_21 -1 y0_20 + 2 y0_22 -1 y0_23 + 1 p0_0_5 >= 0 
 -1 x0_20 -1 x0_21 -1 x0_22 + 1 x0_23 -1 y0_20 + 2 y0_21 -2 y0_22 + 2 y0_23 + 2 p0_0_5 + 5 p1_0_5 >= 0 
 -1 x0_20 -1 x0_21 -3 x0_22 + 2 y0_22 + 1 y0_23 + 2 p0_0_5 + 4 p1_0_5 >= 0 
 -1 x0_20 -1 x0_21 -1 x0_22 -1 x0_23 -1 y0_20 + 1 y0_21 -1 y0_22 -1 y0_23 + 4 p0_0_5 + 6 p1_0_5 >= 0 
 -2 x0_20 + 1 x0_21 -1 x0_22 -2 x0_23 -1 y0_20 -2 y0_21 -1 y0_22 -1 y0_23 + 6 p0_0_5 + 9 p1_0_5 >= 0 
 -1 x0_20 -1 x0_21 -2 x0_22 + 1 x0_23 -1 y0_20 -2 y0_21 -1 y0_22 -2 y0_23 + 6 p0_0_5 + 9 p1_0_5 >= 0 
x0_24 + x0_25 + x0_26 + x0_27 - A0_6 >= 0 
A0_6 - x0_24 >= 0 
A0_6 - x0_25 >= 0 
A0_6 - x0_26 >= 0 
A0_6 - x0_27 >= 0 
+ 4 x0_24 + 4 x0_25 + 4 x0_26 + 4 x0_27 - y0_24 - y0_25 - y0_26 - y0_27 >= 0 
+ 4 y0_24 + 4 y0_25 + 4 y0_26 + 4 y0_27 - x0_24 - x0_25 - x0_26 - x0_27 >= 0 
 -1 p0_0_6 -1 p1_0_6 >= -1 
 -1 x0_24 -1 x0_25 -2 x0_26 -1 x0_27 -1 y0_24 -1 y0_25 + 1 y0_27 + 4 p0_0_6 + 6 p1_0_6 >= 0 
 + 1 x0_24 + 1 y0_24 -1 p1_0_6 >= 0 
 -3 x0_24 + 2 y0_24 + 1 y0_25 -1 y0_26 -1 y0_27 + 2 p0_0_6 + 4 p1_0_6 >= 0 
 -1 x0_24 + 2 x0_26 -1 x0_27 + 1 y0_24 + 2 y0_25 + 1 p0_0_6 >= 0 
 + 1 x0_24 + 1 x0_26 + 1 y0_24 + 1 y0_26 -1 p0_0_6 -2 p1_0_6 >= 0 
 + 1 x0_26 + 1 y0_26 -1 p1_0_6 >= 0 
 + 2 x0_26 + 1 x0_27 -1 y0_24 -1 y0_25 -3 y0_26 + 2 p0_0_6 + 4 p1_0_6 >= 0 
 -1 x0_24 + 1 x0_25 -1 x0_26 -1 x0_27 -1 y0_24 + 1 y0_25 -1 y0_26 + 1 y0_27 + 2 p0_0_6 + 4 p1_0_6 >= 0 
 + 2 x0_24 -1 x0_25 + 1 x0_26 + 2 x0_27 -1 y0_26 + 1 p0_0_6 >= 0 
 -1 x0_24 + 1 x0_25 -1 x0_26 + 2 x0_27 -2 y0_24 + 2 y0_25 -1 y0_26 -1 y0_27 + 2 p0_0_6 + 5 p1_0_6 >= 0 
 + 2 x0_24 + 1 x0_25 -1 x0_26 -1 x0_27 -3 y0_24 + 2 p0_0_6 + 4 p1_0_6 >= 0 
 -1 x0_26 + 2 y0_24 -1 y0_25 + 1 y0_26 + 2 y0_27 + 1 p0_0_6 >= 0 
 -1 x0_24 + 1 x0_25 + 1 x0_27 -1 y0_24 -1 y0_25 -2 y0_26 + 1 y0_27 + 2 p0_0_6 + 4 p1_0_6 >= 0 
 + 1 x0_24 + 2 x0_25 -1 y0_24 + 2 y0_26 -1 y0_27 + 1 p0_0_6 >= 0 
 -1 x0_24 -1 x0_25 -1 x0_26 + 1 x0_27 -1 y0_24 + 2 y0_25 -2 y0_26 + 2 y0_27 + 2 p0_0_6 + 5 p1_0_6 >= 0 
 -1 x0_24 -1 x0_25 -3 x0_26 + 2 y0_26 + 1 y0_27 + 2 p0_0_6 + 4 p1_0_6 >= 0 
 -1 x0_24 -1 x0_25 -1 x0_26 -1 x0_27 -1 y0_24 + 1 y0_25 -1 y0_26 -1 y0_27 + 4 p0_0_6 + 6 p1_0_6 >= 0 
 -2 x0_24 + 1 x0_25 -1 x0_26 -2 x0_27 -1 y0_24 -2 y0_25 -1 y0_26 -1 y0_27 + 6 p0_0_6 + 9 p1_0_6 >= 0 
 -1 x0_24 -1 x0_25 -2 x0_26 + 1 x0_27 -1 y0_24 -2 y0_25 -1 y0_26 -2 y0_27 + 6 p0_0_6 + 9 p1_0_6 >= 0 
x0_28 + x0_29 + x0_30 + x0_31 - A0_7 >= 0 
A0_7 - x0_28 >= 0 
A0_7 - x0_29 >= 0 
A0_7 - x0_30 >= 0 
A0_7 - x0_31 >= 0 
+ 4 x0_28 + 4 x0_29 + 4 x0_30 + 4 x0_31 - y0_28 - y0_29 - y0_30 - y0_31 >= 0 
+ 4 y0_28 + 4 y0_29 + 4 y0_30 + 4 y0_31 - x0_28 - x0_29 - x0_30 - x0_31 >= 0 
 -1 p0_0_7 -1 p1_0_7 >= -1 
 -1 x0_28 -1 x0_29 -2 x0_30 -1 x0_31 -1 y0_28 -1 y0_29 + 1 y0_31 + 4 p0_0_7 + 6 p1_0_7 >= 0 
 + 1 x0_28 + 1 y0_28 -1 p1_0_7 >= 0 
 -3 x0_28 + 2 y0_28 + 1 y0_29 -1 y0_30 -1 y0_31 + 2 p0_0_7 + 4 p1_0_7 >= 0 
 -1 x0_28 + 2 x0_30 -1 x0_31 + 1 y0_28 + 2 y0_29 + 1 p0_0_7 >= 0 
 + 1 x0_28 + 1 x0_30 + 1 y0_28 + 1 y0_30 -1 p0_0_7 -2 p1_0_7 >= 0 
 + 1 x0_30 + 1 y0_30 -1 p1_0_7 >= 0 
 + 2 x0_30 + 1 x0_31 -1 y0_28 -1 y0_29 -3 y0_30 + 2 p0_0_7 + 4 p1_0_7 >= 0 
 -1 x0_28 + 1 x0_29 -1 x0_30 -1 x0_31 -1 y0_28 + 1 y0_29 -1 y0_30 + 1 y0_31 + 2 p0_0_7 + 4 p1_0_7 >= 0 
 + 2 x0_28 -1 x0_29 + 1 x0_30 + 2 x0_31 -1 y0_30 + 1 p0_0_7 >= 0 
 -1 x0_28 + 1 x0_29 -1 x0_30 + 2 x0_31 -2 y0_28 + 2 y0_29 -1 y0_30 -1 y0_31 + 2 p0_0_7 + 5 p1_0_7 >= 0 
 + 2 x0_28 + 1 x0_29 -1 x0_30 -1 x0_31 -3 y0_28 + 2 p0_0_7 + 4 p1_0_7 >= 0 
 -1 x0_30 + 2 y0_28 -1 y0_29 + 1 y0_30 + 2 y0_31 + 1 p0_0_7 >= 0 
 -1 x0_28 + 1 x0_29 + 1 x0_31 -1 y0_28 -1 y0_29 -2 y0_30 + 1 y0_31 + 2 p0_0_7 + 4 p1_0_7 >= 0 
 + 1 x0_28 + 2 x0_29 -1 y0_28 + 2 y0_30 -1 y0_31 + 1 p0_0_7 >= 0 
 -1 x0_28 -1 x0_29 -1 x0_30 + 1 x0_31 -1 y0_28 + 2 y0_29 -2 y0_30 + 2 y0_31 + 2 p0_0_7 + 5 p1_0_7 >= 0 
 -1 x0_28 -1 x0_29 -3 x0_30 + 2 y0_30 + 1 y0_31 + 2 p0_0_7 + 4 p1_0_7 >= 0 
 -1 x0_28 -1 x0_29 -1 x0_30 -1 x0_31 -1 y0_28 + 1 y0_29 -1 y0_30 -1 y0_31 + 4 p0_0_7 + 6 p1_0_7 >= 0 
 -2 x0_28 + 1 x0_29 -1 x0_30 -2 x0_31 -1 y0_28 -2 y0_29 -1 y0_30 -1 y0_31 + 6 p0_0_7 + 9 p1_0_7 >= 0 
 -1 x0_28 -1 x0_29 -2 x0_30 + 1 x0_31 -1 y0_28 -2 y0_29 -1 y0_30 -2 y0_31 + 6 p0_0_7 + 9 p1_0_7 >= 0 
x0_32 + x0_33 + x0_34 + x0_35 - A0_8 >= 0 
A0_8 - x0_32 >= 0 
A0_8 - x0_33 >= 0 
A0_8 - x0_34 >= 0 
A0_8 - x0_35 >= 0 
+ 4 x0_32 + 4 x0_33 + 4 x0_34 + 4 x0_35 - y0_32 - y0_33 - y0_34 - y0_35 >= 0 
+ 4 y0_32 + 4 y0_33 + 4 y0_34 + 4 y0_35 - x0_32 - x0_33 - x0_34 - x0_35 >= 0 
 -1 p0_0_8 -1 p1_0_8 >= -1 
 -1 x0_32 -1 x0_33 -2 x0_34 -1 x0_35 -1 y0_32 -1 y0_33 + 1 y0_35 + 4 p0_0_8 + 6 p1_0_8 >= 0 
 + 1 x0_32 + 1 y0_32 -1 p1_0_8 >= 0 
 -3 x0_32 + 2 y0_32 + 1 y0_33 -1 y0_34 -1 y0_35 + 2 p0_0_8 + 4 p1_0_8 >= 0 
 -1 x0_32 + 2 x0_34 -1 x0_35 + 1 y0_32 + 2 y0_33 + 1 p0_0_8 >= 0 
 + 1 x0_32 + 1 x0_34 + 1 y0_32 + 1 y0_34 -1 p0_0_8 -2 p1_0_8 >= 0 
 + 1 x0_34 + 1 y0_34 -1 p1_0_8 >= 0 
 + 2 x0_34 + 1 x0_35 -1 y0_32 -1 y0_33 -3 y0_34 + 2 p0_0_8 + 4 p1_0_8 >= 0 
 -1 x0_32 + 1 x0_33 -1 x0_34 -1 x0_35 -1 y0_32 + 1 y0_33 -1 y0_34 + 1 y0_35 + 2 p0_0_8 + 4 p1_0_8 >= 0 
 + 2 x0_32 -1 x0_33 + 1 x0_34 + 2 x0_35 -1 y0_34 + 1 p0_0_8 >= 0 
 -1 x0_32 + 1 x0_33 -1 x0_34 + 2 x0_35 -2 y0_32 + 2 y0_33 -1 y0_34 -1 y0_35 + 2 p0_0_8 + 5 p1_0_8 >= 0 
 + 2 x0_32 + 1 x0_33 -1 x0_34 -1 x0_35 -3 y0_32 + 2 p0_0_8 + 4 p1_0_8 >= 0 
 -1 x0_34 + 2 y0_32 -1 y0_33 + 1 y0_34 + 2 y0_35 + 1 p0_0_8 >= 0 
 -1 x0_32 + 1 x0_33 + 1 x0_35 -1 y0_32 -1 y0_33 -2 y0_34 + 1 y0_35 + 2 p0_0_8 + 4 p1_0_8 >= 0 
 + 1 x0_32 + 2 x0_33 -1 y0_32 + 2 y0_34 -1 y0_35 + 1 p0_0_8 >= 0 
 -1 x0_32 -1 x0_33 -1 x0_34 + 1 x0_35 -1 y0_32 + 2 y0_33 -2 y0_34 + 2 y0_35 + 2 p0_0_8 + 5 p1_0_8 >= 0 
 -1 x0_32 -1 x0_33 -3 x0_34 + 2 y0_34 + 1 y0_35 + 2 p0_0_8 + 4 p1_0_8 >= 0 
 -1 x0_32 -1 x0_33 -1 x0_34 -1 x0_35 -1 y0_32 + 1 y0_33 -1 y0_34 -1 y0_35 + 4 p0_0_8 + 6 p1_0_8 >= 0 
 -2 x0_32 + 1 x0_33 -1 x0_34 -2 x0_35 -1 y0_32 -2 y0_33 -1 y0_34 -1 y0_35 + 6 p0_0_8 + 9 p1_0_8 >= 0 
 -1 x0_32 -1 x0_33 -2 x0_34 + 1 x0_35 -1 y0_32 -2 y0_33 -1 y0_34 -2 y0_35 + 6 p0_0_8 + 9 p1_0_8 >= 0 
x0_36 + x0_37 + x0_38 + x0_39 - A0_9 >= 0 
A0_9 - x0_36 >= 0 
A0_9 - x0_37 >= 0 
A0_9 - x0_38 >= 0 
A0_9 - x0_39 >= 0 
+ 4 x0_36 + 4 x0_37 + 4 x0_38 + 4 x0_39 - y0_36 - y0_37 - y0_38 - y0_39 >= 0 
+ 4 y0_36 + 4 y0_37 + 4 y0_38 + 4 y0_39 - x0_36 - x0_37 - x0_38 - x0_39 >= 0 
 -1 p0_0_9 -1 p1_0_9 >= -1 
 -1 x0_36 -1 x0_37 -2 x0_38 -1 x0_39 -1 y0_36 -1 y0_37 + 1 y0_39 + 4 p0_0_9 + 6 p1_0_9 >= 0 
 + 1 x0_36 + 1 y0_36 -1 p1_0_9 >= 0 
 -3 x0_36 + 2 y0_36 + 1 y0_37 -1 y0_38 -1 y0_39 + 2 p0_0_9 + 4 p1_0_9 >= 0 
 -1 x0_36 + 2 x0_38 -1 x0_39 + 1 y0_36 + 2 y0_37 + 1 p0_0_9 >= 0 
 + 1 x0_36 + 1 x0_38 + 1 y0_36 + 1 y0_38 -1 p0_0_9 -2 p1_0_9 >= 0 
 + 1 x0_38 + 1 y0_38 -1 p1_0_9 >= 0 
 + 2 x0_38 + 1 x0_39 -1 y0_36 -1 y0_37 -3 y0_38 + 2 p0_0_9 + 4 p1_0_9 >= 0 
 -1 x0_36 + 1 x0_37 -1 x0_38 -1 x0_39 -1 y0_36 + 1 y0_37 -1 y0_38 + 1 y0_39 + 2 p0_0_9 + 4 p1_0_9 >= 0 
 + 2 x0_36 -1 x0_37 + 1 x0_38 + 2 x0_39 -1 y0_38 + 1 p0_0_9 >= 0 
 -1 x0_36 + 1 x0_37 -1 x0_38 + 2 x0_39 -2 y0_36 + 2 y0_37 -1 y0_38 -1 y0_39 + 2 p0_0_9 + 5 p1_0_9 >= 0 
 + 2 x0_36 + 1 x0_37 -1 x0_38 -1 x0_39 -3 y0_36 + 2 p0_0_9 + 4 p1_0_9 >= 0 
 -1 x0_38 + 2 y0_36 -1 y0_37 + 1 y0_38 + 2 y0_39 + 1 p0_0_9 >= 0 
 -1 x0_36 + 1 x0_37 + 1 x0_39 -1 y0_36 -1 y0_37 -2 y0_38 + 1 y0_39 + 2 p0_0_9 + 4 p1_0_9 >= 0 
 + 1 x0_36 + 2 x0_37 -1 y0_36 + 2 y0_38 -1 y0_39 + 1 p0_0_9 >= 0 
 -1 x0_36 -1 x0_37 -1 x0_38 + 1 x0_39 -1 y0_36 + 2 y0_37 -2 y0_38 + 2 y0_39 + 2 p0_0_9 + 5 p1_0_9 >= 0 
 -1 x0_36 -1 x0_37 -3 x0_38 + 2 y0_38 + 1 y0_39 + 2 p0_0_9 + 4 p1_0_9 >= 0 
 -1 x0_36 -1 x0_37 -1 x0_38 -1 x0_39 -1 y0_36 + 1 y0_37 -1 y0_38 -1 y0_39 + 4 p0_0_9 + 6 p1_0_9 >= 0 
 -2 x0_36 + 1 x0_37 -1 x0_38 -2 x0_39 -1 y0_36 -2 y0_37 -1 y0_38 -1 y0_39 + 6 p0_0_9 + 9 p1_0_9 >= 0 
 -1 x0_36 -1 x0_37 -2 x0_38 + 1 x0_39 -1 y0_36 -2 y0_37 -1 y0_38 -2 y0_39 + 6 p0_0_9 + 9 p1_0_9 >= 0 
x0_40 + x0_41 + x0_42 + x0_43 - A0_10 >= 0 
A0_10 - x0_40 >= 0 
A0_10 - x0_41 >= 0 
A0_10 - x0_42 >= 0 
A0_10 - x0_43 >= 0 
+ 4 x0_40 + 4 x0_41 + 4 x0_42 + 4 x0_43 - y0_40 - y0_41 - y0_42 - y0_43 >= 0 
+ 4 y0_40 + 4 y0_41 + 4 y0_42 + 4 y0_43 - x0_40 - x0_41 - x0_42 - x0_43 >= 0 
 -1 p0_0_10 -1 p1_0_10 >= -1 
 -1 x0_40 -1 x0_41 -2 x0_42 -1 x0_43 -1 y0_40 -1 y0_41 + 1 y0_43 + 4 p0_0_10 + 6 p1_0_10 >= 0 
 + 1 x0_40 + 1 y0_40 -1 p1_0_10 >= 0 
 -3 x0_40 + 2 y0_40 + 1 y0_41 -1 y0_42 -1 y0_43 + 2 p0_0_10 + 4 p1_0_10 >= 0 
 -1 x0_40 + 2 x0_42 -1 x0_43 + 1 y0_40 + 2 y0_41 + 1 p0_0_10 >= 0 
 + 1 x0_40 + 1 x0_42 + 1 y0_40 + 1 y0_42 -1 p0_0_10 -2 p1_0_10 >= 0 
 + 1 x0_42 + 1 y0_42 -1 p1_0_10 >= 0 
 + 2 x0_42 + 1 x0_43 -1 y0_40 -1 y0_41 -3 y0_42 + 2 p0_0_10 + 4 p1_0_10 >= 0 
 -1 x0_40 + 1 x0_41 -1 x0_42 -1 x0_43 -1 y0_40 + 1 y0_41 -1 y0_42 + 1 y0_43 + 2 p0_0_10 + 4 p1_0_10 >= 0 
 + 2 x0_40 -1 x0_41 + 1 x0_42 + 2 x0_43 -1 y0_42 + 1 p0_0_10 >= 0 
 -1 x0_40 + 1 x0_41 -1 x0_42 + 2 x0_43 -2 y0_40 + 2 y0_41 -1 y0_42 -1 y0_43 + 2 p0_0_10 + 5 p1_0_10 >= 0 
 + 2 x0_40 + 1 x0_41 -1 x0_42 -1 x0_43 -3 y0_40 + 2 p0_0_10 + 4 p1_0_10 >= 0 
 -1 x0_42 + 2 y0_40 -1 y0_41 + 1 y0_42 + 2 y0_43 + 1 p0_0_10 >= 0 
 -1 x0_40 + 1 x0_41 + 1 x0_43 -1 y0_40 -1 y0_41 -2 y0_42 + 1 y0_43 + 2 p0_0_10 + 4 p1_0_10 >= 0 
 + 1 x0_40 + 2 x0_41 -1 y0_40 + 2 y0_42 -1 y0_43 + 1 p0_0_10 >= 0 
 -1 x0_40 -1 x0_41 -1 x0_42 + 1 x0_43 -1 y0_40 + 2 y0_41 -2 y0_42 + 2 y0_43 + 2 p0_0_10 + 5 p1_0_10 >= 0 
 -1 x0_40 -1 x0_41 -3 x0_42 + 2 y0_42 + 1 y0_43 + 2 p0_0_10 + 4 p1_0_10 >= 0 
 -1 x0_40 -1 x0_41 -1 x0_42 -1 x0_43 -1 y0_40 + 1 y0_41 -1 y0_42 -1 y0_43 + 4 p0_0_10 + 6 p1_0_10 >= 0 
 -2 x0_40 + 1 x0_41 -1 x0_42 -2 x0_43 -1 y0_40 -2 y0_41 -1 y0_42 -1 y0_43 + 6 p0_0_10 + 9 p1_0_10 >= 0 
 -1 x0_40 -1 x0_41 -2 x0_42 + 1 x0_43 -1 y0_40 -2 y0_41 -1 y0_42 -2 y0_43 + 6 p0_0_10 + 9 p1_0_10 >= 0 
x0_44 + x0_45 + x0_46 + x0_47 - A0_11 >= 0 
A0_11 - x0_44 >= 0 
A0_11 - x0_45 >= 0 
A0_11 - x0_46 >= 0 
A0_11 - x0_47 >= 0 
+ 4 x0_44 + 4 x0_45 + 4 x0_46 + 4 x0_47 - y0_44 - y0_45 - y0_46 - y0_47 >= 0 
+ 4 y0_44 + 4 y0_45 + 4 y0_46 + 4 y0_47 - x0_44 - x0_45 - x0_46 - x0_47 >= 0 
 -1 p0_0_11 -1 p1_0_11 >= -1 
 -1 x0_44 -1 x0_45 -2 x0_46 -1 x0_47 -1 y0_44 -1 y0_45 + 1 y0_47 + 4 p0_0_11 + 6 p1_0_11 >= 0 
 + 1 x0_44 + 1 y0_44 -1 p1_0_11 >= 0 
 -3 x0_44 + 2 y0_44 + 1 y0_45 -1 y0_46 -1 y0_47 + 2 p0_0_11 + 4 p1_0_11 >= 0 
 -1 x0_44 + 2 x0_46 -1 x0_47 + 1 y0_44 + 2 y0_45 + 1 p0_0_11 >= 0 
 + 1 x0_44 + 1 x0_46 + 1 y0_44 + 1 y0_46 -1 p0_0_11 -2 p1_0_11 >= 0 
 + 1 x0_46 + 1 y0_46 -1 p1_0_11 >= 0 
 + 2 x0_46 + 1 x0_47 -1 y0_44 -1 y0_45 -3 y0_46 + 2 p0_0_11 + 4 p1_0_11 >= 0 
 -1 x0_44 + 1 x0_45 -1 x0_46 -1 x0_47 -1 y0_44 + 1 y0_45 -1 y0_46 + 1 y0_47 + 2 p0_0_11 + 4 p1_0_11 >= 0 
 + 2 x0_44 -1 x0_45 + 1 x0_46 + 2 x0_47 -1 y0_46 + 1 p0_0_11 >= 0 
 -1 x0_44 + 1 x0_45 -1 x0_46 + 2 x0_47 -2 y0_44 + 2 y0_45 -1 y0_46 -1 y0_47 + 2 p0_0_11 + 5 p1_0_11 >= 0 
 + 2 x0_44 + 1 x0_45 -1 x0_46 -1 x0_47 -3 y0_44 + 2 p0_0_11 + 4 p1_0_11 >= 0 
 -1 x0_46 + 2 y0_44 -1 y0_45 + 1 y0_46 + 2 y0_47 + 1 p0_0_11 >= 0 
 -1 x0_44 + 1 x0_45 + 1 x0_47 -1 y0_44 -1 y0_45 -2 y0_46 + 1 y0_47 + 2 p0_0_11 + 4 p1_0_11 >= 0 
 + 1 x0_44 + 2 x0_45 -1 y0_44 + 2 y0_46 -1 y0_47 + 1 p0_0_11 >= 0 
 -1 x0_44 -1 x0_45 -1 x0_46 + 1 x0_47 -1 y0_44 + 2 y0_45 -2 y0_46 + 2 y0_47 + 2 p0_0_11 + 5 p1_0_11 >= 0 
 -1 x0_44 -1 x0_45 -3 x0_46 + 2 y0_46 + 1 y0_47 + 2 p0_0_11 + 4 p1_0_11 >= 0 
 -1 x0_44 -1 x0_45 -1 x0_46 -1 x0_47 -1 y0_44 + 1 y0_45 -1 y0_46 -1 y0_47 + 4 p0_0_11 + 6 p1_0_11 >= 0 
 -2 x0_44 + 1 x0_45 -1 x0_46 -2 x0_47 -1 y0_44 -2 y0_45 -1 y0_46 -1 y0_47 + 6 p0_0_11 + 9 p1_0_11 >= 0 
 -1 x0_44 -1 x0_45 -2 x0_46 + 1 x0_47 -1 y0_44 -2 y0_45 -1 y0_46 -2 y0_47 + 6 p0_0_11 + 9 p1_0_11 >= 0 
x0_48 + x0_49 + x0_50 + x0_51 - A0_12 >= 0 
A0_12 - x0_48 >= 0 
A0_12 - x0_49 >= 0 
A0_12 - x0_50 >= 0 
A0_12 - x0_51 >= 0 
+ 4 x0_48 + 4 x0_49 + 4 x0_50 + 4 x0_51 - y0_48 - y0_49 - y0_50 - y0_51 >= 0 
+ 4 y0_48 + 4 y0_49 + 4 y0_50 + 4 y0_51 - x0_48 - x0_49 - x0_50 - x0_51 >= 0 
 -1 p0_0_12 -1 p1_0_12 >= -1 
 -1 x0_48 -1 x0_49 -2 x0_50 -1 x0_51 -1 y0_48 -1 y0_49 + 1 y0_51 + 4 p0_0_12 + 6 p1_0_12 >= 0 
 + 1 x0_48 + 1 y0_48 -1 p1_0_12 >= 0 
 -3 x0_48 + 2 y0_48 + 1 y0_49 -1 y0_50 -1 y0_51 + 2 p0_0_12 + 4 p1_0_12 >= 0 
 -1 x0_48 + 2 x0_50 -1 x0_51 + 1 y0_48 + 2 y0_49 + 1 p0_0_12 >= 0 
 + 1 x0_48 + 1 x0_50 + 1 y0_48 + 1 y0_50 -1 p0_0_12 -2 p1_0_12 >= 0 
 + 1 x0_50 + 1 y0_50 -1 p1_0_12 >= 0 
 + 2 x0_50 + 1 x0_51 -1 y0_48 -1 y0_49 -3 y0_50 + 2 p0_0_12 + 4 p1_0_12 >= 0 
 -1 x0_48 + 1 x0_49 -1 x0_50 -1 x0_51 -1 y0_48 + 1 y0_49 -1 y0_50 + 1 y0_51 + 2 p0_0_12 + 4 p1_0_12 >= 0 
 + 2 x0_48 -1 x0_49 + 1 x0_50 + 2 x0_51 -1 y0_50 + 1 p0_0_12 >= 0 
 -1 x0_48 + 1 x0_49 -1 x0_50 + 2 x0_51 -2 y0_48 + 2 y0_49 -1 y0_50 -1 y0_51 + 2 p0_0_12 + 5 p1_0_12 >= 0 
 + 2 x0_48 + 1 x0_49 -1 x0_50 -1 x0_51 -3 y0_48 + 2 p0_0_12 + 4 p1_0_12 >= 0 
 -1 x0_50 + 2 y0_48 -1 y0_49 + 1 y0_50 + 2 y0_51 + 1 p0_0_12 >= 0 
 -1 x0_48 + 1 x0_49 + 1 x0_51 -1 y0_48 -1 y0_49 -2 y0_50 + 1 y0_51 + 2 p0_0_12 + 4 p1_0_12 >= 0 
 + 1 x0_48 + 2 x0_49 -1 y0_48 + 2 y0_50 -1 y0_51 + 1 p0_0_12 >= 0 
 -1 x0_48 -1 x0_49 -1 x0_50 + 1 x0_51 -1 y0_48 + 2 y0_49 -2 y0_50 + 2 y0_51 + 2 p0_0_12 + 5 p1_0_12 >= 0 
 -1 x0_48 -1 x0_49 -3 x0_50 + 2 y0_50 + 1 y0_51 + 2 p0_0_12 + 4 p1_0_12 >= 0 
 -1 x0_48 -1 x0_49 -1 x0_50 -1 x0_51 -1 y0_48 + 1 y0_49 -1 y0_50 -1 y0_51 + 4 p0_0_12 + 6 p1_0_12 >= 0 
 -2 x0_48 + 1 x0_49 -1 x0_50 -2 x0_51 -1 y0_48 -2 y0_49 -1 y0_50 -1 y0_51 + 6 p0_0_12 + 9 p1_0_12 >= 0 
 -1 x0_48 -1 x0_49 -2 x0_50 + 1 x0_51 -1 y0_48 -2 y0_49 -1 y0_50 -2 y0_51 + 6 p0_0_12 + 9 p1_0_12 >= 0 
x0_52 + x0_53 + x0_54 + x0_55 - A0_13 >= 0 
A0_13 - x0_52 >= 0 
A0_13 - x0_53 >= 0 
A0_13 - x0_54 >= 0 
A0_13 - x0_55 >= 0 
+ 4 x0_52 + 4 x0_53 + 4 x0_54 + 4 x0_55 - y0_52 - y0_53 - y0_54 - y0_55 >= 0 
+ 4 y0_52 + 4 y0_53 + 4 y0_54 + 4 y0_55 - x0_52 - x0_53 - x0_54 - x0_55 >= 0 
 -1 p0_0_13 -1 p1_0_13 >= -1 
 -1 x0_52 -1 x0_53 -2 x0_54 -1 x0_55 -1 y0_52 -1 y0_53 + 1 y0_55 + 4 p0_0_13 + 6 p1_0_13 >= 0 
 + 1 x0_52 + 1 y0_52 -1 p1_0_13 >= 0 
 -3 x0_52 + 2 y0_52 + 1 y0_53 -1 y0_54 -1 y0_55 + 2 p0_0_13 + 4 p1_0_13 >= 0 
 -1 x0_52 + 2 x0_54 -1 x0_55 + 1 y0_52 + 2 y0_53 + 1 p0_0_13 >= 0 
 + 1 x0_52 + 1 x0_54 + 1 y0_52 + 1 y0_54 -1 p0_0_13 -2 p1_0_13 >= 0 
 + 1 x0_54 + 1 y0_54 -1 p1_0_13 >= 0 
 + 2 x0_54 + 1 x0_55 -1 y0_52 -1 y0_53 -3 y0_54 + 2 p0_0_13 + 4 p1_0_13 >= 0 
 -1 x0_52 + 1 x0_53 -1 x0_54 -1 x0_55 -1 y0_52 + 1 y0_53 -1 y0_54 + 1 y0_55 + 2 p0_0_13 + 4 p1_0_13 >= 0 
 + 2 x0_52 -1 x0_53 + 1 x0_54 + 2 x0_55 -1 y0_54 + 1 p0_0_13 >= 0 
 -1 x0_52 + 1 x0_53 -1 x0_54 + 2 x0_55 -2 y0_52 + 2 y0_53 -1 y0_54 -1 y0_55 + 2 p0_0_13 + 5 p1_0_13 >= 0 
 + 2 x0_52 + 1 x0_53 -1 x0_54 -1 x0_55 -3 y0_52 + 2 p0_0_13 + 4 p1_0_13 >= 0 
 -1 x0_54 + 2 y0_52 -1 y0_53 + 1 y0_54 + 2 y0_55 + 1 p0_0_13 >= 0 
 -1 x0_52 + 1 x0_53 + 1 x0_55 -1 y0_52 -1 y0_53 -2 y0_54 + 1 y0_55 + 2 p0_0_13 + 4 p1_0_13 >= 0 
 + 1 x0_52 + 2 x0_53 -1 y0_52 + 2 y0_54 -1 y0_55 + 1 p0_0_13 >= 0 
 -1 x0_52 -1 x0_53 -1 x0_54 + 1 x0_55 -1 y0_52 + 2 y0_53 -2 y0_54 + 2 y0_55 + 2 p0_0_13 + 5 p1_0_13 >= 0 
 -1 x0_52 -1 x0_53 -3 x0_54 + 2 y0_54 + 1 y0_55 + 2 p0_0_13 + 4 p1_0_13 >= 0 
 -1 x0_52 -1 x0_53 -1 x0_54 -1 x0_55 -1 y0_52 + 1 y0_53 -1 y0_54 -1 y0_55 + 4 p0_0_13 + 6 p1_0_13 >= 0 
 -2 x0_52 + 1 x0_53 -1 x0_54 -2 x0_55 -1 y0_52 -2 y0_53 -1 y0_54 -1 y0_55 + 6 p0_0_13 + 9 p1_0_13 >= 0 
 -1 x0_52 -1 x0_53 -2 x0_54 + 1 x0_55 -1 y0_52 -2 y0_53 -1 y0_54 -2 y0_55 + 6 p0_0_13 + 9 p1_0_13 >= 0 
x0_56 + x0_57 + x0_58 + x0_59 - A0_14 >= 0 
A0_14 - x0_56 >= 0 
A0_14 - x0_57 >= 0 
A0_14 - x0_58 >= 0 
A0_14 - x0_59 >= 0 
+ 4 x0_56 + 4 x0_57 + 4 x0_58 + 4 x0_59 - y0_56 - y0_57 - y0_58 - y0_59 >= 0 
+ 4 y0_56 + 4 y0_57 + 4 y0_58 + 4 y0_59 - x0_56 - x0_57 - x0_58 - x0_59 >= 0 
 -1 p0_0_14 -1 p1_0_14 >= -1 
 -1 x0_56 -1 x0_57 -2 x0_58 -1 x0_59 -1 y0_56 -1 y0_57 + 1 y0_59 + 4 p0_0_14 + 6 p1_0_14 >= 0 
 + 1 x0_56 + 1 y0_56 -1 p1_0_14 >= 0 
 -3 x0_56 + 2 y0_56 + 1 y0_57 -1 y0_58 -1 y0_59 + 2 p0_0_14 + 4 p1_0_14 >= 0 
 -1 x0_56 + 2 x0_58 -1 x0_59 + 1 y0_56 + 2 y0_57 + 1 p0_0_14 >= 0 
 + 1 x0_56 + 1 x0_58 + 1 y0_56 + 1 y0_58 -1 p0_0_14 -2 p1_0_14 >= 0 
 + 1 x0_58 + 1 y0_58 -1 p1_0_14 >= 0 
 + 2 x0_58 + 1 x0_59 -1 y0_56 -1 y0_57 -3 y0_58 + 2 p0_0_14 + 4 p1_0_14 >= 0 
 -1 x0_56 + 1 x0_57 -1 x0_58 -1 x0_59 -1 y0_56 + 1 y0_57 -1 y0_58 + 1 y0_59 + 2 p0_0_14 + 4 p1_0_14 >= 0 
 + 2 x0_56 -1 x0_57 + 1 x0_58 + 2 x0_59 -1 y0_58 + 1 p0_0_14 >= 0 
 -1 x0_56 + 1 x0_57 -1 x0_58 + 2 x0_59 -2 y0_56 + 2 y0_57 -1 y0_58 -1 y0_59 + 2 p0_0_14 + 5 p1_0_14 >= 0 
 + 2 x0_56 + 1 x0_57 -1 x0_58 -1 x0_59 -3 y0_56 + 2 p0_0_14 + 4 p1_0_14 >= 0 
 -1 x0_58 + 2 y0_56 -1 y0_57 + 1 y0_58 + 2 y0_59 + 1 p0_0_14 >= 0 
 -1 x0_56 + 1 x0_57 + 1 x0_59 -1 y0_56 -1 y0_57 -2 y0_58 + 1 y0_59 + 2 p0_0_14 + 4 p1_0_14 >= 0 
 + 1 x0_56 + 2 x0_57 -1 y0_56 + 2 y0_58 -1 y0_59 + 1 p0_0_14 >= 0 
 -1 x0_56 -1 x0_57 -1 x0_58 + 1 x0_59 -1 y0_56 + 2 y0_57 -2 y0_58 + 2 y0_59 + 2 p0_0_14 + 5 p1_0_14 >= 0 
 -1 x0_56 -1 x0_57 -3 x0_58 + 2 y0_58 + 1 y0_59 + 2 p0_0_14 + 4 p1_0_14 >= 0 
 -1 x0_56 -1 x0_57 -1 x0_58 -1 x0_59 -1 y0_56 + 1 y0_57 -1 y0_58 -1 y0_59 + 4 p0_0_14 + 6 p1_0_14 >= 0 
 -2 x0_56 + 1 x0_57 -1 x0_58 -2 x0_59 -1 y0_56 -2 y0_57 -1 y0_58 -1 y0_59 + 6 p0_0_14 + 9 p1_0_14 >= 0 
 -1 x0_56 -1 x0_57 -2 x0_58 + 1 x0_59 -1 y0_56 -2 y0_57 -1 y0_58 -2 y0_59 + 6 p0_0_14 + 9 p1_0_14 >= 0 
x0_60 + x0_61 + x0_62 + x0_63 - A0_15 >= 0 
A0_15 - x0_60 >= 0 
A0_15 - x0_61 >= 0 
A0_15 - x0_62 >= 0 
A0_15 - x0_63 >= 0 
+ 4 x0_60 + 4 x0_61 + 4 x0_62 + 4 x0_63 - y0_60 - y0_61 - y0_62 - y0_63 >= 0 
+ 4 y0_60 + 4 y0_61 + 4 y0_62 + 4 y0_63 - x0_60 - x0_61 - x0_62 - x0_63 >= 0 
 -1 p0_0_15 -1 p1_0_15 >= -1 
 -1 x0_60 -1 x0_61 -2 x0_62 -1 x0_63 -1 y0_60 -1 y0_61 + 1 y0_63 + 4 p0_0_15 + 6 p1_0_15 >= 0 
 + 1 x0_60 + 1 y0_60 -1 p1_0_15 >= 0 
 -3 x0_60 + 2 y0_60 + 1 y0_61 -1 y0_62 -1 y0_63 + 2 p0_0_15 + 4 p1_0_15 >= 0 
 -1 x0_60 + 2 x0_62 -1 x0_63 + 1 y0_60 + 2 y0_61 + 1 p0_0_15 >= 0 
 + 1 x0_60 + 1 x0_62 + 1 y0_60 + 1 y0_62 -1 p0_0_15 -2 p1_0_15 >= 0 
 + 1 x0_62 + 1 y0_62 -1 p1_0_15 >= 0 
 + 2 x0_62 + 1 x0_63 -1 y0_60 -1 y0_61 -3 y0_62 + 2 p0_0_15 + 4 p1_0_15 >= 0 
 -1 x0_60 + 1 x0_61 -1 x0_62 -1 x0_63 -1 y0_60 + 1 y0_61 -1 y0_62 + 1 y0_63 + 2 p0_0_15 + 4 p1_0_15 >= 0 
 + 2 x0_60 -1 x0_61 + 1 x0_62 + 2 x0_63 -1 y0_62 + 1 p0_0_15 >= 0 
 -1 x0_60 + 1 x0_61 -1 x0_62 + 2 x0_63 -2 y0_60 + 2 y0_61 -1 y0_62 -1 y0_63 + 2 p0_0_15 + 5 p1_0_15 >= 0 
 + 2 x0_60 + 1 x0_61 -1 x0_62 -1 x0_63 -3 y0_60 + 2 p0_0_15 + 4 p1_0_15 >= 0 
 -1 x0_62 + 2 y0_60 -1 y0_61 + 1 y0_62 + 2 y0_63 + 1 p0_0_15 >= 0 
 -1 x0_60 + 1 x0_61 + 1 x0_63 -1 y0_60 -1 y0_61 -2 y0_62 + 1 y0_63 + 2 p0_0_15 + 4 p1_0_15 >= 0 
 + 1 x0_60 + 2 x0_61 -1 y0_60 + 2 y0_62 -1 y0_63 + 1 p0_0_15 >= 0 
 -1 x0_60 -1 x0_61 -1 x0_62 + 1 x0_63 -1 y0_60 + 2 y0_61 -2 y0_62 + 2 y0_63 + 2 p0_0_15 + 5 p1_0_15 >= 0 
 -1 x0_60 -1 x0_61 -3 x0_62 + 2 y0_62 + 1 y0_63 + 2 p0_0_15 + 4 p1_0_15 >= 0 
 -1 x0_60 -1 x0_61 -1 x0_62 -1 x0_63 -1 y0_60 + 1 y0_61 -1 y0_62 -1 y0_63 + 4 p0_0_15 + 6 p1_0_15 >= 0 
 -2 x0_60 + 1 x0_61 -1 x0_62 -2 x0_63 -1 y0_60 -2 y0_61 -1 y0_62 -1 y0_63 + 6 p0_0_15 + 9 p1_0_15 >= 0 
 -1 x0_60 -1 x0_61 -2 x0_62 + 1 x0_63 -1 y0_60 -2 y0_61 -1 y0_62 -2 y0_63 + 6 p0_0_15 + 9 p1_0_15 >= 0 
z0_0 - y0_0 = 0 
z0_1 - y0_1 = 0 
z0_2 - y0_2 = 0 
z0_3 - y0_3 = 0 
z0_4 - y0_28 = 0 
z0_5 - y0_29 = 0 
z0_6 - y0_30 = 0 
z0_7 - y0_31 = 0 
z0_8 - y0_40 = 0 
z0_9 - y0_41 = 0 
z0_10 - y0_42 = 0 
z0_11 - y0_43 = 0 
z0_12 - y0_52 = 0 
z0_13 - y0_53 = 0 
z0_14 - y0_54 = 0 
z0_15 - y0_55 = 0 
z0_16 - y0_16 = 0 
z0_17 - y0_17 = 0 
z0_18 - y0_18 = 0 
z0_19 - y0_19 = 0 
z0_20 - y0_44 = 0 
z0_21 - y0_45 = 0 
z0_22 - y0_46 = 0 
z0_23 - y0_47 = 0 
z0_24 - y0_56 = 0 
z0_25 - y0_57 = 0 
z0_26 - y0_58 = 0 
z0_27 - y0_59 = 0 
z0_28 - y0_4 = 0 
z0_29 - y0_5 = 0 
z0_30 - y0_6 = 0 
z0_31 - y0_7 = 0 
z0_32 - y0_32 = 0 
z0_33 - y0_33 = 0 
z0_34 - y0_34 = 0 
z0_35 - y0_35 = 0 
z0_36 - y0_60 = 0 
z0_37 - y0_61 = 0 
z0_38 - y0_62 = 0 
z0_39 - y0_63 = 0 
z0_40 - y0_8 = 0 
z0_41 - y0_9 = 0 
z0_42 - y0_10 = 0 
z0_43 - y0_11 = 0 
z0_44 - y0_20 = 0 
z0_45 - y0_21 = 0 
z0_46 - y0_22 = 0 
z0_47 - y0_23 = 0 
z0_48 - y0_48 = 0 
z0_49 - y0_49 = 0 
z0_50 - y0_50 = 0 
z0_51 - y0_51 = 0 
z0_52 - y0_12 = 0 
z0_53 - y0_13 = 0 
z0_54 - y0_14 = 0 
z0_55 - y0_15 = 0 
z0_56 - y0_24 = 0 
z0_57 - y0_25 = 0 
z0_58 - y0_26 = 0 
z0_59 - y0_27 = 0 
z0_60 - y0_36 = 0 
z0_61 - y0_37 = 0 
z0_62 - y0_38 = 0 
z0_63 - y0_39 = 0 
 + z0_4 + z0_8 + z0_12 + x1_0 -4 d0_0 -2 d0_1 = 0 
 + z0_5 + z0_9 + z0_13 + x1_1 -4 d0_2 -2 d0_3 = 0 
 + z0_6 + z0_10 + z0_14 + x1_2 -4 d0_4 -2 d0_5 = 0 
 + z0_7 + z0_11 + z0_15 + x1_3 -4 d0_6 -2 d0_7 = 0 
 + z0_0 + z0_8 + z0_12 + x1_4 -4 d0_8 -2 d0_9 = 0 
 + z0_1 + z0_9 + z0_13 + x1_5 -4 d0_10 -2 d0_11 = 0 
 + z0_2 + z0_10 + z0_14 + x1_6 -4 d0_12 -2 d0_13 = 0 
 + z0_3 + z0_11 + z0_15 + x1_7 -4 d0_14 -2 d0_15 = 0 
 + z0_0 + z0_4 + z0_12 + x1_8 -4 d0_16 -2 d0_17 = 0 
 + z0_1 + z0_5 + z0_13 + x1_9 -4 d0_18 -2 d0_19 = 0 
 + z0_2 + z0_6 + z0_14 + x1_10 -4 d0_20 -2 d0_21 = 0 
 + z0_3 + z0_7 + z0_15 + x1_11 -4 d0_22 -2 d0_23 = 0 
 + z0_0 + z0_4 + z0_8 + x1_12 -4 d0_24 -2 d0_25 = 0 
 + z0_1 + z0_5 + z0_9 + x1_13 -4 d0_26 -2 d0_27 = 0 
 + z0_2 + z0_6 + z0_10 + x1_14 -4 d0_28 -2 d0_29 = 0 
 + z0_3 + z0_7 + z0_11 + x1_15 -4 d0_30 -2 d0_31 = 0 
 + z0_20 + z0_24 + z0_28 + x1_16 -4 d0_32 -2 d0_33 = 0 
 + z0_21 + z0_25 + z0_29 + x1_17 -4 d0_34 -2 d0_35 = 0 
 + z0_22 + z0_26 + z0_30 + x1_18 -4 d0_36 -2 d0_37 = 0 
 + z0_23 + z0_27 + z0_31 + x1_19 -4 d0_38 -2 d0_39 = 0 
 + z0_16 + z0_24 + z0_28 + x1_20 -4 d0_40 -2 d0_41 = 0 
 + z0_17 + z0_25 + z0_29 + x1_21 -4 d0_42 -2 d0_43 = 0 
 + z0_18 + z0_26 + z0_30 + x1_22 -4 d0_44 -2 d0_45 = 0 
 + z0_19 + z0_27 + z0_31 + x1_23 -4 d0_46 -2 d0_47 = 0 
 + z0_16 + z0_20 + z0_28 + x1_24 -4 d0_48 -2 d0_49 = 0 
 + z0_17 + z0_21 + z0_29 + x1_25 -4 d0_50 -2 d0_51 = 0 
 + z0_18 + z0_22 + z0_30 + x1_26 -4 d0_52 -2 d0_53 = 0 
 + z0_19 + z0_23 + z0_31 + x1_27 -4 d0_54 -2 d0_55 = 0 
 + z0_16 + z0_20 + z0_24 + x1_28 -4 d0_56 -2 d0_57 = 0 
 + z0_17 + z0_21 + z0_25 + x1_29 -4 d0_58 -2 d0_59 = 0 
 + z0_18 + z0_22 + z0_26 + x1_30 -4 d0_60 -2 d0_61 = 0 
 + z0_19 + z0_23 + z0_27 + x1_31 -4 d0_62 -2 d0_63 = 0 
 + z0_36 + z0_40 + z0_44 + x1_32 -4 d0_64 -2 d0_65 = 0 
 + z0_37 + z0_41 + z0_45 + x1_33 -4 d0_66 -2 d0_67 = 0 
 + z0_38 + z0_42 + z0_46 + x1_34 -4 d0_68 -2 d0_69 = 0 
 + z0_39 + z0_43 + z0_47 + x1_35 -4 d0_70 -2 d0_71 = 0 
 + z0_32 + z0_40 + z0_44 + x1_36 -4 d0_72 -2 d0_73 = 0 
 + z0_33 + z0_41 + z0_45 + x1_37 -4 d0_74 -2 d0_75 = 0 
 + z0_34 + z0_42 + z0_46 + x1_38 -4 d0_76 -2 d0_77 = 0 
 + z0_35 + z0_43 + z0_47 + x1_39 -4 d0_78 -2 d0_79 = 0 
 + z0_32 + z0_36 + z0_44 + x1_40 -4 d0_80 -2 d0_81 = 0 
 + z0_33 + z0_37 + z0_45 + x1_41 -4 d0_82 -2 d0_83 = 0 
 + z0_34 + z0_38 + z0_46 + x1_42 -4 d0_84 -2 d0_85 = 0 
 + z0_35 + z0_39 + z0_47 + x1_43 -4 d0_86 -2 d0_87 = 0 
 + z0_32 + z0_36 + z0_40 + x1_44 -4 d0_88 -2 d0_89 = 0 
 + z0_33 + z0_37 + z0_41 + x1_45 -4 d0_90 -2 d0_91 = 0 
 + z0_34 + z0_38 + z0_42 + x1_46 -4 d0_92 -2 d0_93 = 0 
 + z0_35 + z0_39 + z0_43 + x1_47 -4 d0_94 -2 d0_95 = 0 
 + z0_52 + z0_56 + z0_60 + x1_48 -4 d0_96 -2 d0_97 = 0 
 + z0_53 + z0_57 + z0_61 + x1_49 -4 d0_98 -2 d0_99 = 0 
 + z0_54 + z0_58 + z0_62 + x1_50 -4 d0_100 -2 d0_101 = 0 
 + z0_55 + z0_59 + z0_63 + x1_51 -4 d0_102 -2 d0_103 = 0 
 + z0_48 + z0_56 + z0_60 + x1_52 -4 d0_104 -2 d0_105 = 0 
 + z0_49 + z0_57 + z0_61 + x1_53 -4 d0_106 -2 d0_107 = 0 
 + z0_50 + z0_58 + z0_62 + x1_54 -4 d0_108 -2 d0_109 = 0 
 + z0_51 + z0_59 + z0_63 + x1_55 -4 d0_110 -2 d0_111 = 0 
 + z0_48 + z0_52 + z0_60 + x1_56 -4 d0_112 -2 d0_113 = 0 
 + z0_49 + z0_53 + z0_61 + x1_57 -4 d0_114 -2 d0_115 = 0 
 + z0_50 + z0_54 + z0_62 + x1_58 -4 d0_116 -2 d0_117 = 0 
 + z0_51 + z0_55 + z0_63 + x1_59 -4 d0_118 -2 d0_119 = 0 
 + z0_48 + z0_52 + z0_56 + x1_60 -4 d0_120 -2 d0_121 = 0 
 + z0_49 + z0_53 + z0_57 + x1_61 -4 d0_122 -2 d0_123 = 0 
 + z0_50 + z0_54 + z0_58 + x1_62 -4 d0_124 -2 d0_125 = 0 
 + z0_51 + z0_55 + z0_59 + x1_63 -4 d0_126 -2 d0_127 = 0 
Binary
A0_0
A0_1
A0_2
A0_3
A0_4
A0_5
A0_6
A0_7
A0_8
A0_9
A0_10
A0_11
A0_12
A0_13
A0_14
A0_15
x0_0
x0_1
x0_2
x0_3
x0_4
x0_5
x0_6
x0_7
x0_8
x0_9
x0_10
x0_11
x0_12
x0_13
x0_14
x0_15
x0_16
x0_17
x0_18
x0_19
x0_20
x0_21
x0_22
x0_23
x0_24
x0_25
x0_26
x0_27
x0_28
x0_29
x0_30
x0_31
x0_32
x0_33
x0_34
x0_35
x0_36
x0_37
x0_38
x0_39
x0_40
x0_41
x0_42
x0_43
x0_44
x0_45
x0_46
x0_47
x0_48
x0_49
x0_50
x0_51
x0_52
x0_53
x0_54
x0_55
x0_56
x0_57
x0_58
x0_59
x0_60
x0_61
x0_62
x0_63
x1_0
x1_1
x1_2
x1_3
x1_4
x1_5
x1_6
x1_7
x1_8
x1_9
x1_10
x1_11
x1_12
x1_13
x1_14
x1_15
x1_16
x1_17
x1_18
x1_19
x1_20
x1_21
x1_22
x1_23
x1_24
x1_25
x1_26
x1_27
x1_28
x1_29
x1_30
x1_31
x1_32
x1_33
x1_34
x1_35
x1_36
x1_37
x1_38
x1_39
x1_40
x1_41
x1_42
x1_43
x1_44
x1_45
x1_46
x1_47
x1_48
x1_49
x1_50
x1_51
x1_52
x1_53
x1_54
x1_55
x1_56
x1_57
x1_58
x1_59
x1_60
x1_61
x1_62
x1_63
y0_0
y0_1
y0_2
y0_3
y0_4
y0_5
y0_6
y0_7
y0_8
y0_9
y0_10
y0_11
y0_12
y0_13
y0_14
y0_15
y0_16
y0_17
y0_18
y0_19
y0_20
y0_21
y0_22
y0_23
y0_24
y0_25
y0_26
y0_27
y0_28
y0_29
y0_30
y0_31
y0_32
y0_33
y0_34
y0_35
y0_36
y0_37
y0_38
y0_39
y0_40
y0_41
y0_42
y0_43
y0_44
y0_45
y0_46
y0_47
y0_48
y0_49
y0_50
y0_51
y0_52
y0_53
y0_54
y0_55
y0_56
y0_57
y0_58
y0_59
y0_60
y0_61
y0_62
y0_63
z0_0
z0_1
z0_2
z0_3
z0_4
z0_5
z0_6
z0_7
z0_8
z0_9
z0_10
z0_11
z0_12
z0_13
z0_14
z0_15
z0_16
z0_17
z0_18
z0_19
z0_20
z0_21
z0_22
z0_23
z0_24
z0_25
z0_26
z0_27
z0_28
z0_29
z0_30
z0_31
z0_32
z0_33
z0_34
z0_35
z0_36
z0_37
z0_38
z0_39
z0_40
z0_41
z0_42
z0_43
z0_44
z0_45
z0_46
z0_47
z0_48
z0_49
z0_50
z0_51
z0_52
z0_53
z0_54
z0_55
z0_56
z0_57
z0_58
z0_59
z0_60
z0_61
z0_62
z0_63
d0_0
d0_1
d0_2
d0_3
d0_4
d0_5
d0_6
d0_7
d0_8
d0_9
d0_10
d0_11
d0_12
d0_13
d0_14
d0_15
d0_16
d0_17
d0_18
d0_19
d0_20
d0_21
d0_22
d0_23
d0_24
d0_25
d0_26
d0_27
d0_28
d0_29
d0_30
d0_31
d0_32
d0_33
d0_34
d0_35
d0_36
d0_37
d0_38
d0_39
d0_40
d0_41
d0_42
d0_43
d0_44
d0_45
d0_46
d0_47
d0_48
d0_49
d0_50
d0_51
d0_52
d0_53
d0_54
d0_55
d0_56
d0_57
d0_58
d0_59
d0_60
d0_61
d0_62
d0_63
d0_64
d0_65
d0_66
d0_67
d0_68
d0_69
d0_70
d0_71
d0_72
d0_73
d0_74
d0_75
d0_76
d0_77
d0_78
d0_79
d0_80
d0_81
d0_82
d0_83
d0_84
d0_85
d0_86
d0_87
d0_88
d0_89
d0_90
d0_91
d0_92
d0_93
d0_94
d0_95
d0_96
d0_97
d0_98
d0_99
d0_100
d0_101
d0_102
d0_103
d0_104
d0_105
d0_106
d0_107
d0_108
d0_109
d0_110
d0_111
d0_112
d0_113
d0_114
d0_115
d0_116
d0_117
d0_118
d0_119
d0_120
d0_121
d0_122
d0_123
d0_124
d0_125
d0_126
d0_127
p0_0_0
p0_0_1
p0_0_2
p0_0_3
p0_0_4
p0_0_5
p0_0_6
p0_0_7
p0_0_8
p0_0_9
p0_0_10
p0_0_11
p0_0_12
p0_0_13
p0_0_14
p0_0_15
p1_0_0
p1_0_1
p1_0_2
p1_0_3
p1_0_4
p1_0_5
p1_0_6
p1_0_7
p1_0_8
p1_0_9
p1_0_10
p1_0_11
p1_0_12
p1_0_13
p1_0_14
p1_0_15
